# Objective value = 4.9381149999999934e+03
x_0_3 0
x_0_5 0
x_0_6 1
x_0_7 0
x_0_8 1.0000000000000004e+00
x_0_9 0
x_0_10 0
x_0_12 0
x_0_13 0
x_0_16 9.9999999999999978e-01
x_0_19 0
x_0_20 4.7184478546569153e-16
x_0_22 1
x_0_25 1.0000000000000002e+00
x_0_26 0
x_0_28 0
x_0_30 9.9999999999999978e-01
x_0_31 0
x_0_32 0
x_0_33 0
x_0_34 0
x_0_36 0
x_0_38 -3.0531133177191805e-16
x_0_39 0
x_0_41 0
x_0_43 9.9999999999999978e-01
x_0_46 0
x_0_47 0
x_0_48 0
x_0_49 1.0000000000000002e+00
x_0_50 -1.1102230246251565e-16
x_0_51 9.9999999999999978e-01
x_0_56 9.9999999999999978e-01
x_0_57 0
x_0_59 9.9999999999999978e-01
x_0_60 0
x_0_62 9.9999999999999978e-01
x_0_63 0
x_0_64 -3.3306690738754696e-16
x_3_5 0
x_3_6 0
x_3_7 0
x_3_8 0
x_3_9 0
x_3_10 0
x_3_12 0
x_3_13 0
x_3_16 0
x_3_19 9.9999999999999922e-01
x_3_20 0
x_3_22 0
x_3_25 0
x_3_26 0
x_3_28 0
x_3_30 0
x_3_31 0
x_3_32 0
x_3_33 0
x_3_34 0
x_3_36 9.9999999999999922e-01
x_3_38 7.7715611723760958e-16
x_3_39 0
x_3_41 0
x_3_43 0
x_3_46 0
x_3_47 0
x_3_48 0
x_3_49 0
x_3_50 0
x_3_51 0
x_3_56 0
x_3_57 7.7715611723760958e-16
x_3_59 0
x_3_60 0
x_3_62 0
x_3_63 0
x_3_64 0
x_5_6 0
x_5_7 0
x_5_8 0
x_5_9 0
x_5_10 0
x_5_12 0
x_5_13 0
x_5_16 0
x_5_19 0
x_5_20 0
x_5_22 0
x_5_25 0
x_5_26 0
x_5_28 0
x_5_30 0
x_5_31 0
x_5_32 0
x_5_33 0
x_5_34 0
x_5_36 0
x_5_38 0
x_5_39 0
x_5_41 0
x_5_43 0
x_5_46 0
x_5_47 0
x_5_48 0
x_5_49 0
x_5_50 0
x_5_51 0
x_5_56 0
x_5_57 0
x_5_59 0
x_5_60 0
x_5_62 0
x_5_63 0
x_5_64 0
x_6_7 0
x_6_8 9.9999999999999889e-01
x_6_9 0
x_6_10 0
x_6_12 0
x_6_13 0
x_6_16 1
x_6_19 0
x_6_20 0
x_6_22 1
x_6_25 1
x_6_26 1.2212453270876722e-15
x_6_28 0
x_6_30 1
x_6_31 0
x_6_32 0
x_6_33 0
x_6_34 0
x_6_36 0
x_6_38 0
x_6_39 0
x_6_41 0
x_6_43 1
x_6_46 0
x_6_47 0
x_6_48 0
x_6_49 1
x_6_50 0
x_6_51 1
x_6_56 1
x_6_57 0
x_6_59 1
x_6_60 0
x_6_62 1
x_6_63 0
x_6_64 0
x_7_8 0
x_7_9 0
x_7_10 0
x_7_12 1.0000000000000004e+00
x_7_13 0
x_7_16 0
x_7_19 0
x_7_20 0
x_7_22 0
x_7_25 0
x_7_26 0
x_7_28 0
x_7_30 0
x_7_31 0
x_7_32 0
x_7_33 0
x_7_34 0
x_7_36 0
x_7_38 0
x_7_39 0
x_7_41 0
x_7_43 0
x_7_46 0
x_7_47 0
x_7_48 1.8873791418627661e-15
x_7_49 0
x_7_50 0
x_7_51 0
x_7_56 0
x_7_57 9.9999999999999911e-01
x_7_59 0
x_7_60 0
x_7_62 0
x_7_63 0
x_7_64 0
x_8_9 0
x_8_10 7.7715611723760958e-16
x_8_12 0
x_8_13 0
x_8_16 9.9999999999999889e-01
x_8_19 0
x_8_20 7.7715611723760958e-16
x_8_22 1
x_8_25 1
x_8_26 8.8817841970012523e-16
x_8_28 1.1102230246251565e-15
x_8_30 1
x_8_31 0
x_8_32 0
x_8_33 0
x_8_34 0
x_8_36 0
x_8_38 0
x_8_39 0
x_8_41 0
x_8_43 1
x_8_46 0
x_8_47 0
x_8_48 0
x_8_49 1
x_8_50 2.2204460492503131e-16
x_8_51 1
x_8_56 1
x_8_57 1.1102230246251565e-16
x_8_59 1
x_8_60 4.4408920985006262e-16
x_8_62 1
x_8_63 0
x_8_64 0
x_9_10 0
x_9_12 0
x_9_13 0
x_9_16 0
x_9_19 0
x_9_20 0
x_9_22 0
x_9_25 0
x_9_26 0
x_9_28 0
x_9_30 0
x_9_31 1
x_9_32 0
x_9_33 0
x_9_34 0
x_9_36 0
x_9_38 0
x_9_39 0
x_9_41 0
x_9_43 0
x_9_46 0
x_9_47 0
x_9_48 0
x_9_49 0
x_9_50 0
x_9_51 0
x_9_56 0
x_9_57 0
x_9_59 0
x_9_60 0
x_9_62 0
x_9_63 0
x_9_64 0
x_10_12 0
x_10_13 9.9999999999999933e-01
x_10_16 0
x_10_19 0
x_10_20 9.9999999999999967e-01
x_10_22 0
x_10_25 0
x_10_26 9.9999999999999978e-01
x_10_28 1
x_10_30 0
x_10_31 0
x_10_32 9.9999999999999889e-01
x_10_33 0
x_10_34 9.43689570931383e-16
x_10_36 0
x_10_38 9.9999999999999889e-01
x_10_39 0
x_10_41 0
x_10_43 0
x_10_46 0
x_10_47 0
x_10_48 0
x_10_49 0
x_10_50 0
x_10_51 0
x_10_56 0
x_10_57 6.6613381477509392e-16
x_10_59 0
x_10_60 0
x_10_62 0
x_10_63 0
x_10_64 9.9999999999999867e-01
x_12_13 0
x_12_16 0
x_12_19 0
x_12_20 0
x_12_22 0
x_12_25 0
x_12_26 -4.4408920985006262e-16
x_12_28 0
x_12_30 0
x_12_31 0
x_12_32 0
x_12_33 0
x_12_34 0
x_12_36 0
x_12_38 0
x_12_39 0
x_12_41 0
x_12_43 0
x_12_46 0
x_12_47 0
x_12_48 1.5543122344752192e-15
x_12_49 0
x_12_50 0
x_12_51 0
x_12_56 0
x_12_57 9.9999999999999845e-01
x_12_59 0
x_12_60 0
x_12_62 0
x_12_63 0
x_12_64 0
x_13_16 0
x_13_19 0
x_13_20 0.999999999999999
x_13_22 0
x_13_25 0
x_13_26 9.9999999999999911e-01
x_13_28 9.9999999999999845e-01
x_13_30 0
x_13_31 0
x_13_32 9.9999999999999878e-01
x_13_33 0
x_13_34 0
x_13_36 0
x_13_38 9.9999999999999845e-01
x_13_39 0
x_13_41 0
x_13_43 0
x_13_46 9.9920072216264089e-16
x_13_47 0
x_13_48 0
x_13_49 0
x_13_50 0
x_13_51 0
x_13_56 0
x_13_57 0
x_13_59 0
x_13_60 0
x_13_62 0
x_13_63 0
x_13_64 9.9999999999999845e-01
x_16_19 0
x_16_20 0
x_16_22 1
x_16_25 1
x_16_26 1.2212453270876722e-15
x_16_28 0
x_16_30 1
x_16_31 0
x_16_32 0
x_16_33 0
x_16_34 0
x_16_36 0
x_16_38 0
x_16_39 0
x_16_41 0
x_16_43 1
x_16_46 0
x_16_47 0
x_16_48 0
x_16_49 1
x_16_50 -2.2204460492503131e-16
x_16_51 1
x_16_56 1
x_16_57 5.5511151231257827e-17
x_16_59 1
x_16_60 0
x_16_62 1
x_16_63 0
x_16_64 0
x_19_20 0
x_19_22 0
x_19_25 0
x_19_26 0
x_19_28 0
x_19_30 0
x_19_31 0
x_19_32 0
x_19_33 0
x_19_34 0
x_19_36 1
x_19_38 0
x_19_39 0
x_19_41 0
x_19_43 0
x_19_46 0
x_19_47 0
x_19_48 0
x_19_49 0
x_19_50 0
x_19_51 0
x_19_56 0
x_19_57 0
x_19_59 0
x_19_60 0
x_19_62 0
x_19_63 0
x_19_64 0
x_20_22 7.7715611723760958e-16
x_20_25 0
x_20_26 9.9999999999999978e-01
x_20_28 1.0000000000000002e+00
x_20_30 0
x_20_31 0
x_20_32 9.9999999999999778e-01
x_20_33 0
x_20_34 8.3266726846886741e-16
x_20_36 0
x_20_38 9.9999999999999922e-01
x_20_39 0
x_20_41 0
x_20_43 0
x_20_46 0
x_20_47 0
x_20_48 0
x_20_49 7.7715611723760958e-16
x_20_50 0
x_20_51 0
x_20_56 7.7715611723760958e-16
x_20_57 1.9984014443252818e-15
x_20_59 1.1934897514720433e-15
x_20_60 0
x_20_62 0
x_20_63 0
x_20_64 1.0000000000000002e+00
x_22_25 1
x_22_26 1.4988010832439613e-15
x_22_28 0
x_22_30 1
x_22_31 0
x_22_32 0
x_22_33 0
x_22_34 0
x_22_36 0
x_22_38 0
x_22_39 0
x_22_41 0
x_22_43 1
x_22_46 0
x_22_47 0
x_22_48 0
x_22_49 1
x_22_50 0
x_22_51 1
x_22_56 1
x_22_57 0
x_22_59 1
x_22_60 0
x_22_62 1
x_22_63 0
x_22_64 0
x_25_26 1.4988010832439613e-15
x_25_28 0
x_25_30 1
x_25_31 0
x_25_32 0
x_25_33 0
x_25_34 0
x_25_36 0
x_25_38 0
x_25_39 0
x_25_41 0
x_25_43 1
x_25_46 0
x_25_47 0
x_25_48 0
x_25_49 1
x_25_50 -2.2204460492503131e-16
x_25_51 1
x_25_56 1
x_25_57 0
x_25_59 1
x_25_60 0
x_25_62 1
x_25_63 0
x_25_64 0
x_26_28 1.0000000000000002e+00
x_26_30 1.4988010832439613e-15
x_26_31 0
x_26_32 9.9999999999999878e-01
x_26_33 0
x_26_34 0
x_26_36 0
x_26_38 1
x_26_39 0
x_26_41 0
x_26_43 2.2204460492503131e-16
x_26_46 1.9151347174783950e-15
x_26_47 0
x_26_48 0
x_26_49 1.4988010832439613e-15
x_26_50 0
x_26_51 1.4988010832439613e-15
x_26_56 1.4988010832439613e-15
x_26_57 6.1062266354383610e-16
x_26_59 1.2212453270876722e-15
x_26_60 0
x_26_62 1.4988010832439613e-15
x_26_63 0
x_26_64 9.9999999999999845e-01
x_28_30 0
x_28_31 0
x_28_32 9.9999999999999889e-01
x_28_33 0
x_28_34 9.43689570931383e-16
x_28_36 0
x_28_38 1
x_28_39 0
x_28_41 0
x_28_43 4.7184478546569153e-16
x_28_46 -3.6082248300317588e-16
x_28_47 0
x_28_48 0
x_28_49 5.5511151231257827e-17
x_28_50 0
x_28_51 0
x_28_56 0
x_28_57 1.5543122344752192e-15
x_28_59 0
x_28_60 0
x_28_62 0
x_28_63 0
x_28_64 1
x_30_31 0
x_30_32 0
x_30_33 0
x_30_34 0
x_30_36 0
x_30_38 0
x_30_39 0
x_30_41 0
x_30_43 1
x_30_46 0
x_30_47 0
x_30_48 0
x_30_49 1
x_30_50 -2.2204460492503131e-16
x_30_51 1
x_30_56 1
x_30_57 0
x_30_59 1
x_30_60 0
x_30_62 1
x_30_63 0
x_30_64 0
x_31_32 0
x_31_33 0
x_31_34 0
x_31_36 0
x_31_38 0
x_31_39 0
x_31_41 0
x_31_43 0
x_31_46 0
x_31_47 0
x_31_48 0
x_31_49 0
x_31_50 0
x_31_51 0
x_31_56 0
x_31_57 0
x_31_59 0
x_31_60 0
x_31_62 0
x_31_63 0
x_31_64 0
x_32_33 0
x_32_34 0
x_32_36 0
x_32_38 9.9999999999999845e-01
x_32_39 0
x_32_41 0
x_32_43 0
x_32_46 0
x_32_47 0
x_32_48 0
x_32_49 0
x_32_50 0
x_32_51 0
x_32_56 0
x_32_57 0
x_32_59 0
x_32_60 0
x_32_62 0
x_32_63 0
x_32_64 9.9999999999999845e-01
x_33_34 0
x_33_36 0
x_33_38 0
x_33_39 0
x_33_41 0
x_33_43 0
x_33_46 0
x_33_47 0
x_33_48 0
x_33_49 0
x_33_50 0
x_33_51 0
x_33_56 0
x_33_57 0
x_33_59 0
x_33_60 0
x_33_62 0
x_33_63 0
x_33_64 0
x_34_36 0
x_34_38 2.2204460492503131e-16
x_34_39 0
x_34_41 0
x_34_43 0
x_34_46 0
x_34_47 0
x_34_48 0
x_34_49 0
x_34_50 0
x_34_51 0
x_34_56 0
x_34_57 1.5543122344752192e-15
x_34_59 0
x_34_60 0
x_34_62 0
x_34_63 0
x_34_64 1.1102230246251565e-16
x_36_38 0
x_36_39 0
x_36_41 0
x_36_43 0
x_36_46 0
x_36_47 0
x_36_48 0
x_36_49 0
x_36_50 0
x_36_51 0
x_36_56 0
x_36_57 0
x_36_59 0
x_36_60 0
x_36_62 0
x_36_63 0
x_36_64 0
x_38_39 0
x_38_41 0
x_38_43 0
x_38_46 0
x_38_47 0
x_38_48 0
x_38_49 0
x_38_50 0
x_38_51 0
x_38_56 0
x_38_57 1.7763568394002505e-15
x_38_59 0
x_38_60 0
x_38_62 0
x_38_63 0
x_38_64 1
x_39_41 0
x_39_43 0
x_39_46 0
x_39_47 0
x_39_48 0
x_39_49 0
x_39_50 0
x_39_51 0
x_39_56 0
x_39_57 0
x_39_59 4.4408920985006262e-16
x_39_60 1
x_39_62 0
x_39_63 0
x_39_64 0
x_41_43 0
x_41_46 0
x_41_47 0
x_41_48 0
x_41_49 0
x_41_50 0
x_41_51 0
x_41_56 0
x_41_57 0
x_41_59 0
x_41_60 0
x_41_62 0
x_41_63 0
x_41_64 0
x_43_46 0
x_43_47 0
x_43_48 0
x_43_49 1
x_43_50 0
x_43_51 1
x_43_56 1
x_43_57 5.5511151231257827e-17
x_43_59 1
x_43_60 0
x_43_62 1
x_43_63 0
x_43_64 0
x_46_47 0
x_46_48 0
x_46_49 0
x_46_50 0
x_46_51 0
x_46_56 0
x_46_57 0
x_46_59 0
x_46_60 0
x_46_62 0
x_46_63 0
x_46_64 -3.6082248300317588e-16
x_47_48 0
x_47_49 0
x_47_50 1
x_47_51 0
x_47_56 0
x_47_57 0
x_47_59 0
x_47_60 0
x_47_62 0
x_47_63 0
x_47_64 0
x_48_49 0
x_48_50 0
x_48_51 0
x_48_56 0
x_48_57 0
x_48_59 0
x_48_60 0
x_48_62 0
x_48_63 0
x_48_64 0
x_49_50 -2.2204460492503131e-16
x_49_51 9.9999999999999944e-01
x_49_56 1
x_49_57 0
x_49_59 1.0000000000000004e+00
x_49_60 0
x_49_62 1
x_49_63 0
x_49_64 0
x_50_51 0
x_50_56 -2.2204460492503131e-16
x_50_57 0
x_50_59 2.2204460492503131e-16
x_50_60 0
x_50_62 0
x_50_63 0
x_50_64 0
x_51_56 1
x_51_57 0
x_51_59 1
x_51_60 0
x_51_62 1
x_51_63 0
x_51_64 0
x_56_57 0
x_56_59 1
x_56_60 4.4408920985006262e-16
x_56_62 1
x_56_63 0
x_56_64 0
x_57_59 5.5511151231257827e-17
x_57_60 0
x_57_62 0
x_57_63 0
x_57_64 1.5543122344752192e-15
x_59_60 4.4408920985006262e-16
x_59_62 1
x_59_63 0
x_59_64 0
x_60_62 0
x_60_63 0
x_60_64 0
x_62_63 0
x_62_64 0
x_63_64 0
